NAME: rbg088a.sop
TYPE: SOP
COMMENT: Stacker crane application (Norbert Ascheuer)
DIMENSION: 90
EDGE_WEIGHT_TYPE: EXPLICIT
EDGE_WEIGHT_FORMAT: FULL_MATRIX 
EDGE_WEIGHT_SECTION
  90
   0   0   0   0   0   0   0   0   0   0   0   0   0   0   0   0   0   0   0   0   0   0   0   0   0   0   0   0   0   0   0   0   0   0   0   0   0   0   0   0   0   0   0   0   0   0   0   0   0   0   0   0   0   0   0   0   0   0   0   0   0   0   0   0   0   0   0   0   0   0   0   0   0   0   0   0   0   0   0   0   0   0   0   0   0   0   0   0   0 1000000
  -1   0  29  29  29  29  29  29  29  29  29  29  18  29  29  29  10  29  13  25  29  29  29  29  25  24  28  24  29  29  29  12  29  18  29  29  29  29  29  10  29  14  12  29  23  29  29  29  29  11  12  29  13  29  28  23  26  27  28  21  29  28  26  28  18  28  29  18  16  16  29  18  29  12  29  29  14  12  27  12  12  29  28  28  11  12  29  12  29   0
  -1  29   0  29  29  29  29  29  29  29  29  29  18  29  29  29  10  29  10  25  29  29  29  29  25  24  28  24  29  29  29  12  29  18  29  29  29  29  29  10  29  14  12  29  23  29  29  29  29  11  12  29  11  29  28  23  26  27  28  21  29  28  26  28  18  28  29  18  16  16  29  18  29  12  29  29  14  12  27  12  12  29  28  28  11  12  29  12  29   0
  -1  18  18   0  18  18  18  18  18  18  18  18  18  18  18  18  24  18  24  10  18  18  18  18  10  11  16  11  18  18  18  27  18  18  18  18  18  18  18  25  18  23  23  18  14  18  18  18  18  24  23  18  24  18  16  12  12  12  16  15  18  15  12  16  18  16  18  18  20  20  18  18  18  27  18  18  27  23  14  23  23  18  15  15  25  26  18  23  18   0
  -1  29  29  29   0  29  29  29  29  29  29  29  18  29  29  29  15  29  10  25  29  29  29  29  25  24  28  24  29  29  29  15  29  18  29  29  29  29  29  10  29  15  15  29  23  29  29  29  29  11  15  29  11  29  28  23  26  27  28  21  29  28  26  28  18  28  29  18  16  16  29  18  29  15  29  29  14  15  27  12  12  29  28  28  15  12  29  12  29   0
  -1  23  23  23  23   0  23  23  23  23  23  23  14  23  23  23  23  23  23  12  23  23  23  23  12  10  21  10  23  23  23  25  23  14  23  23  23  23  23  24  23  18  21  23  11  23  23  23  23  23  20  23  23  23  21   8  15  16  21  14  23  20  15  21  14  21  23  14  15  15  23  14  23  25  23  23  25  20  18  21  21  23  20  20  24  24  23  21  23   0
  -1  21  21  21  21  21   0  21  21  21  21  21  15  21  21  21  23  21  23  12  21  21  21  21  12   0  20   1  21  21  21  25  21  15  21  21  21  21  21  24  21  20  23  21  12  21  21  21  21  23  21  21  23  21  20  10  14  15  20  12  21  18  14  20  15  20  21  15  16  16  21  15  21  25  21  21  26  21  16  23  23  21  18  18  24  25  21  23  21   0
  -1  -1  23  23  23  23  23   0  23  23  23  23  12  23  23  23  21  23  21  15  23  23  23  23  15  12  23  12  23  23  23  24  23  12  23  23  23  23  23  23  23  15  18  23   3  23  23  23  23  20  16  23  20  23  23  11  18  20  23  12  23  23  18  23  12  23  23  12  12  12  23  12  23  24  23  23  24  16  21  18  18  23  23  23  23  24  23  18  23   0
  -1  -1  -1  -1  -1  23  23  23   0  23  23  23  12  23  23  23  21  23  21  15  23  23  23  23  15  12  23  12  23  23  23  24  23  12  23  23  23  23  23  23  23  15  18  23   3  23  23  23  23  20  16  23  20  23  23  11  18  20  23  12  23  23  18  23  12  23  23  12  12  12  23  12  23  24  23  23  24  16  21  18  18  23  23  23  23  24  23  18  23   0
  -1  -1  -1  -1  -1  -1  28  28  28   0  28  28  16  28  28  28   6  28  13  24  28  28  28  28  24  23  28  23  28  28  28  14  28  16  28  28  28  28  28  11  28  12  11  28  21  28  28  28  28  10  12  28  13  28  28  23  25  26  28  20  28  27  25  28  16  28  28  16  15  15  28  16  28  14  28  28  15  12  27  11  11  28  27  27  12  12  28  11  28   0
  -1  -1  -1  -1  -1  -1  -1  -1  -1  -1   0  24   6  24  24  24  16  24  16  20  24  24  24  24  20  15  24  15  24  24  24  23  24   2  24  24  24  24  24  20  24  12  14  24  12  24  24  24  24  15  12  24  15  24  24  14  23  23  24  11  24  24  23  24   4  24  24   6  10  10  24   5  24  23  24  24  23  12  23  14  14  24  24  24  21  23  24  14  24   0
  -1  -1  -1  -1  -1  -1  -1  -1  -1  -1  25   0  10  25  25  25  15  25  15  21  25  25  25  25  21  16  24  16  25  25  25  23  25  10  25  25  25  25  25  18  25  11  12  25  12  25  25  25  25  14  12  25  14  25  24  15  23  23  24  12  25  24  23  24  10  24  25  10   4   1  25  10  25  23  25  25  23  12  24  12  12  25  24  24  20  21  25  12  25   0
  -1  -1  -1  -1  -1  -1  -1  -1  -1  -1  24  24   0  24  24  24  16  24  18  20  24  24  24  24  20  15  24  15  24  24  24  23  24   7  24  24  24  24  24  20  24  12  14  24  12  24  24  24  24  15  12  24  18  24  24  14  23  23  24  18  24  24  23  24  14  24  24   4  10  10  24  15  24  23  24  24  23  12  23  14  14  24  24  24  21  23  24  14  24   0
  -1  -1  -1  -1  -1  -1  -1  -1  -1  -1  24  24   6   0  24  24  16  24  16  20  24  24  24  24  20  15  24  15  24  24  24  23  24   2  24  24  24  24  24  20  24  12  14  24  12  24  24  24  24  15  12  24  15  24  24  14  23  23  24  11  24  24  23  24   4  24  24   6  10  10  24   5  24  23  24  24  23  12  23  14  14  24  24  24  21  23  24  14  24   0
  -1  -1  -1  -1  -1  -1  -1  -1  -1  -1  24  24   6  24   0  24  16  24  16  20  24  24  24  24  20  15  24  15  24  24  24  23  24   2  24  24  24  24  24  20  24  12  14  24  12  24  24  24  24  15  12  24  15  24  24  14  23  23  24  11  24  24  23  24   4  24  24   6  10  10  24   5  24  23  24  24  23  12  23  14  14  24  24  24  21  23  24  14  24   0
  -1  -1  -1  -1  -1  -1  -1  -1  -1  -1  23  23  14  23  23   0  23  23  23  12  23  23  23  23  12  10  21  10  23  23  23  25  23  14  23  23  23  23  23  24  23  18  21  23  11  23  23  23  23  23  20  23  23  23  21   2  15  16  21  12  23  20  15  21  14  21  23  14  15  15  23  14  23  25  23  23  25  20  18  21  21  23  20  20  24  24  23  21  23   0
  -1  -1  -1  -1  -1  -1  -1  -1  -1  -1  -1  -1  -1  -1  -1   0   0   0  28  16   0   0   0   0  16  21  10  21   0   0   0  31   0  24   0   0   0   0   0  30   0  26  27   0  23   0   0   0   0  28  27   0  28   0  10  23  14  14  10  24   0  11  14  10  24  10   0  24  25  25   0  24   0  31   0   0  33  27  12  27  27   0  11  18  31  31   0  27   0   0
  -1  -1  -1  -1  -1  -1  -1  -1  -1  -1  -1  -1  -1  -1  -1  28  19   0   0  24  28  28  28  28  24  23  28  23  28  28  28  19  28  16  28  28  28  28  28  11  28  19  19  28  21  28  28  28  28  10  19  28  10  28  28  23  25  26  28  20  28  27  25  28  16  28  28  16  15  15  28  16  28  19  28  28  15  19  27  11  11  28  27  27  19  12  28  11  28   0
  -1  -1  -1  -1  -1  -1  -1  -1  -1  -1  -1  -1  -1  -1  -1  28   0  28   0  24  28  28  28  28  24  23  28  23  28  28  28  14  28  16  28  28  28  28  28  15  28  12  11  28  21  28  28  28  28  15  12  28  19  28  28  23  25  26  28  20  28  27  25  28  16  28  28  16  15  15  28  17  28  14  28  28  15  12  27  11  11  28  27  27  12  15  28  12  28   0
  -1  -1  -1  -1  -1  -1  -1  -1  -1  -1  -1  -1  -1  -1  -1  16  24  16  24   0  16  16  16  16   6  12  15  12  16  16  16  27  16  20  16  16  16  16  16  25  16  23  24  16  15  16  16  16  16  24  23  16  24  16  15  12  11  12  15  16  16  14  12  15  20  15  16  20  21  21  16  20  16  27  16  16  28  23  12  24  24  16  14  16  26  27  16  24  16   0
  -1  -1  -1  -1  -1  -1  -1  -1  -1  -1  -1  -1  -1  -1  -1  28  19  28   0  24   0  28  28  28  24  23  28  23  28  28  28  19  28  16  28  28  28  28  28  11  28  19  19  28  21  28  28  28  28  10  19  28  10  28  28  23  25  26  28  20  28  27  25  28  16  28  28  16  15  15  28  16  28  19  28  28  15  19  27  11  11  28  27  27  19  12  28  11  28   0
  -1  -1  -1  -1  -1  -1  -1  -1  -1  -1  -1  -1  -1  -1  -1  -1  19  29  10  25  29   0  29  29  25  24  28  24  29  29  29  19  29  18  29  29  29  29  29  10  29  19  19  29  23  29  29  29  29  11  19  29  11  29  28  23  26  27  28  21  29  28  26  28  18  28  29  18  16  16  29  18  29  19  29  29  14  19  27  12  12  29  28  28  19  12  29  12  29   0
  -1  -1  -1  -1  -1  -1  -1  -1  -1  -1  -1  -1  -1  -1  -1  -1  19  29  10  25  29  29   0  29  25  24  28  24  29  29  29  19  29  18  29  29  29  29  29  10  29  19  19  29  23  29  29  29  29  11  19  29  11  29  28  23  26  27  28  21  29  28  26  28  18  28  29  18  16  16  29  18  29  19  29  29  14  19  27  12  12  29  28  28  19  12  29  12  29   0
  -1  -1  -1  -1  -1  -1  -1  -1  -1  -1  -1  -1  -1  -1  -1  -1  19  28  10  24  28  28  28   0  24  23  27  23  28  28  28  19  28  15  28  28  28  28  28  12  28  19  19  28  20  28  28  28  28   4  19  28   0  28  27  23  25  25  27  18  28  27  25  27  15  27  28  15  14  14  28  15  28  19  28  28  16  19  26  10  10  28  27  27  19  14  28  10  28   0
  -1  -1  -1  -1  -1  -1  -1  -1  -1  -1  -1  -1  -1  -1  -1  -1  -1  23  23  12  23  23  23  23   0  10  21  10  23  23  23  25  23  14  23  23  23  23  23  24  23  18  21  23  11  23  23  23  23  23  20  23  23  23  21  12  15  16  21  18  23  20  15  21  14  21  23  14  15  15  23  15  23  25  23  23  25  20  18  21  21  23  20  20  24  24  23  21  23   0
  -1  -1  -1  -1  -1  -1  -1  -1  -1  -1  -1  -1  -1  -1  -1  -1  -1  -1  -1  -1  -1  -1  23  23  12   0  21  10  23  23  23  25  23  14  23  23  23  23  23  24  23  18  21  23  11  23  23  23  23  23  20  23  23  23  21  12  15  16  21  18  23  20  15  21  14  21  23  14  15  15  23  15  23  25  23  23  25  20  18  21  21  23  20  20  24  24  23  21  23   0
  -1  -1  -1  -1  -1  -1  -1  -1  -1  -1  -1  -1  -1  -1  -1  -1  -1  -1  -1  -1  -1  -1  -1   0  16  21   0  21   0   0   0  31   0  24   0   0   0   0   0  30   0  26  27   0  23   0   0   0   0  28  27   0  28   0  10  23  14  14  10  24   0  11  14  10  24  10   0  24  25  25   0  24   0  31   0   0  33  27  12  27  27   0  11  18  31  31   0  27   0   0
  -1  -1  -1  -1  -1  -1  -1  -1  -1  -1  -1  -1  -1  -1  -1  -1  -1  -1  -1  -1  -1  -1  -1  -1  15  20   0   0  10  10  10  31  10  24  10  10  10  10  10  29  10  25  27  10  23  10  10  10  10  27  26  10  27  10   0  21  12  15   0  23  10  10  15   0  24   6  10  24  24  24  10  24  10  31  10  10  31  26  11  27  27  10  10  19  30  31  10  27  10   0
  -1  -1  -1  -1  -1  -1  -1  -1  -1  -1  -1  -1  -1  -1  -1  -1  -1  -1  -1  -1  -1  -1  -1  -1  -1  12  15  12   0  16  16  27  16  20  16  16  16  16  16  25  16  23  24  16  15  16  16  16  16  24  23  16  24  16  15  12  11  12  15  16  16  14  11  15  20  15  16  20  21  21  16  20  16  27  16  16  28  23  12  24  24  16  14  14  26  27  16  24  16   0
  -1  -1  -1  -1  -1  -1  -1  -1  -1  -1  -1  -1  -1  -1  -1  -1  -1  -1  -1  -1  -1  -1  -1  -1  -1  15  24  15  24   0  24  23  24   2  24  24  24  24  24  20  24  12  14  24  12  24  24  24  24  15  12  24  15  24  24  14  23  23  24  12  24  24  23  24   9  24  24   1  10  10  24  10  24  23  24  24  23  12  23  14  14  24  24  24  21  23  24  14  24   0
  -1  -1  -1  -1  -1  -1  -1  -1  -1  -1  -1  -1  -1  -1  -1  -1  -1  -1  -1  -1  -1  -1  -1  -1  -1  -1  19  21  18  18   0  31  18  24  18  18  18  18  18  30  18  26  27  18  23  18  18  18  18  28  27  18  28  18  19  23  19  12  19  24  18  19  14  19  24  13  18  24  25  25  18  24  18  31  18  18  33  27  12  27  27  18  19  11  31  31  18  27  18   0
  -1  -1  -1  -1  -1  -1  -1  -1  -1  -1  -1  -1  -1  -1  -1  -1  -1  -1  -1  -1  -1  -1  -1  -1  -1  -1  10  21   0   0   0   0   0  24   0   0   0   0   0  30   0  26  27   0  23   0   0   0   0  28  27   0  28   0  10  23  14  14  10  24   0  11  14  10  24  10   0  24  25  25   0  24   0  31   0   0  33  27  12  27  27   0  11  18  31  31   0  27   0   0
  -1  -1  -1  -1  -1  -1  -1  -1  -1  -1  -1  -1  -1  -1  -1  -1  -1  -1  -1  -1  -1  -1  -1  -1  -1  -1  -1  15  24  24  24  23   0   1  24  24  24  24  24  20  24  12  14  24  12  24  24  24  24  15  12  24  15  24  24  14  23  23  24  11  24  24  23  24   5  24  24   4  10  10  24   6  24  23  24  24  23  12  23  14  14  24  24  24  21  23  24  14  24   0
  -1  -1  -1  -1  -1  -1  -1  -1  -1  -1  -1  -1  -1  -1  -1  -1  -1  -1  -1  -1  -1  -1  -1  -1  -1  -1  -1  12  15  15  15  28  15   0  15  15  15  15  15  26  15  23  24  15  16  15  15  15  15  24  24  15  24  15  14  14  10  15  14  19  15  12  15  14  21  14  15  21  23  23  15  21  15  28  15  15  28  24  12  24  24  15  12  19  27  27  15  24  15   0
  -1  -1  -1  -1  -1  -1  -1  -1  -1  -1  -1  -1  -1  -1  -1  -1  -1  -1  -1  -1  -1  -1  -1  -1  -1  -1  -1  -1  25  25  25  23  25  10   0  25  25  25  25  18  25  11  12  25  12  25  25  25  25  14  12  25  14  25  24  15  23  23  24  12  25  24  23  24  10  24  25  10   4   1  25  10  25  23  25  25  23  12  24  12  12  25  24  24  20  21  25  12  25   0
  -1  -1  -1  -1  -1  -1  -1  -1  -1  -1  -1  -1  -1  -1  -1  -1  -1  -1  -1  -1  -1  -1  -1  -1  -1  -1  -1  -1  24  24  24  23  24   3  24   0  24  24  24  20  24  12  14  24  12  24  24  24  24  15  12  24  15  24  24  14  23  23  24  14  24  24  23  24  10  24  24   0  10  10  24  11  24  23  24  24  23  12  23  14  14  24  24  24  21  23  24  14  24   0
  -1  -1  -1  -1  -1  -1  -1  -1  -1  -1  -1  -1  -1  -1  -1  -1  -1  -1  -1  -1  -1  -1  -1  -1  -1  -1  -1  -1  18  18  18  28  18  23  18  18   0  18  18  27  18  24  24  18  18  18  18  18  18  25  24  18  25  18  19  15  19  10  19  20  18  19   4  19  23  13  18  23  23  23  18  23  18  28  18  18  29  24  11  24  24  18  19  12  27  28  18  24  18   0
  -1  -1  -1  -1  -1  -1  -1  -1  -1  -1  -1  -1  -1  -1  -1  -1  -1  -1  -1  -1  -1  -1  -1  -1  -1  -1  -1  -1  -1  18  18  28  18  21  18  18  18   0  18  26  18  23  24  18  16  18  18  18  18  24  24  18  24  18  19  14  19  11  19  18  18  19  10  19  21  14  18  21  23  23  18  21  18  28  18  18  28  24  12  24  24  18  19  12  27  27  18  24  18   0
  -1  -1  -1  -1  -1  -1  -1  -1  -1  -1  -1  -1  -1  -1  -1  -1  -1  -1  -1  -1  -1  -1  -1  -1  -1  -1  -1  -1  -1  -1  24  23  24   5  24  24  24  24   0  20  24  15  15  24  12  24  24  24  24  15  15  24  15  24  24  14  23  23  24  11  24  24  23  24   1  24  24   9  10  10  24   2  24  23  24  24  23  15  23  14  14  24  24  24  21  23  24  14  24   0
  -1  -1  -1  -1  -1  -1  -1  -1  -1  -1  -1  -1  -1  -1  -1  -1  -1  -1  -1  -1  -1  -1  -1  -1  -1  -1  -1  -1  31  31  31   0  31  23  31  31  31  31  31   0  31  20  16  31  24  31  31  31  31  15  18  31  19  31  31  25  28  29  31  24  31  31  28  31  23  31  31  23  23  23  31  23  31   0  31  31  10  18  30  16  16  31  31  31  11  15  31  16  31   0
  -1  -1  -1  -1  -1  -1  -1  -1  -1  -1  -1  -1  -1  -1  -1  -1  -1  -1  -1  -1  -1  -1  -1  -1  -1  -1  -1  -1  -1  -1  -1  -1  24   8  24  24  24  24  24  20   0  17  17  24  12  24  24  24  24  15  17  24  15  24  24  14  23  23  24  11  24  24  23  24   1  24  24  11  11  10  24   0  24  23  24  24  23  17  23  14  14  24  24  24  21  23  24  14  24   0
  -1  -1  -1  -1  -1  -1  -1  -1  -1  -1  -1  -1  -1  -1  -1  -1  -1  -1  -1  -1  -1  -1  -1  -1  -1  -1  -1  -1  -1  -1  -1  -1  -1  -1  30  30  30  30  30   0  30   0  15  30  23  30  30  30  30  12  15  30  12  30  29  24  27  27  29  23  30  28  27  29  20  29  30  20  18  18  30  20  30  15  30  30  12  15  28  12  12  30  28  28  15  11  30  12  30   0
  -1  -1  -1  -1  -1  -1  -1  -1  -1  -1  -1  -1  -1  -1  -1  -1  -1  -1  -1  -1  -1  -1  -1  -1  -1  -1  -1  -1  -1  -1  -1  -1  -1  -1   0   0   0   0   0  30   0  26   0   0  23   0   0   0   0  28  27   0  28   0  10  23  14  14  10  24   0  11  14  10  24  10   0  24  25  25   0  24   0  31   0   0  33  27  12  27  27   0  11  18  31  31   0  27   0   0
  -1  -1  -1  -1  -1  -1  -1  -1  -1  -1  -1  -1  -1  -1  -1  -1  -1  -1  -1  -1  -1  -1  -1  -1  -1  -1  -1  -1  -1  -1  -1  -1  -1  -1  -1  16  16  16  16  -1  16  23  24   0  15  16  16  16  16  24  23  16  24  16  15  12  11  12  15  16  16  14  11  15  20  15  16  20  21  21  16  20  16  27  16  16  28  23  12  24  24  16  14  14  26  27  16  24  16   0
  -1  -1  -1  -1  -1  -1  -1  -1  -1  -1  -1  -1  -1  -1  -1  -1  -1  -1  -1  -1  -1  -1  -1  -1  -1  -1  -1  -1  -1  -1  -1  -1  -1  -1  -1  26  26  26  26  -1  26   0  11  26   0  26  26  26  26  15  10  26  19  26  25  18  24  24  25  19  26  25  24  25  16  25  26  12  11  11  26  17  26  20  26  26  21  10  24  11  11  26  25  25  16  18  26  12  26   0
  -1  -1  -1  -1  -1  -1  -1  -1  -1  -1  -1  -1  -1  -1  -1  -1  -1  -1  -1  -1  -1  -1  -1  -1  -1  -1  -1  -1  -1  -1  -1  -1  -1  -1  -1  -1  24  24  24  -1  24  19  19  24  12   0  24  24  24  15  19  24  15  24  24  14  23  23  24  11  24  24  23  24   3  24  24  14  14  10  24   2  24  23  24  24  23  19  23  14  14  24  24  24  21  23  24  14  24   0
  -1  -1  -1  -1  -1  -1  -1  -1  -1  -1  -1  -1  -1  -1  -1  -1  -1  -1  -1  -1  -1  -1  -1  -1  -1  -1  -1  -1  -1  -1  -1  -1  -1  -1  -1  -1  -1  -1  24  -1  24  18  18  24  12  24   0  24  24  15  18  24  15  24  24  14  23  23  24  11  24  24  23  24   2  24  24  12  12  10  24   1  24  23  24  24  23  18  23  14  14  24  24  24  21  23  24  14  24   0
  -1  -1  -1  -1  -1  -1  -1  -1  -1  -1  -1  -1  -1  -1  -1  -1  -1  -1  -1  -1  -1  -1  -1  -1  -1  -1  -1  -1  -1  -1  -1  -1  -1  -1  -1  -1  -1  -1  30  -1  30  15  12  30  23  30  30   0  30  12  14  30  12  30  29  24  27  27  29  23  30  28  27  29  20  29  30  20  18  18  30  20  30  12  30  30  12  14  28  12  12  30  28  28  10  11  30  12  30   0
  -1  -1  -1  -1  -1  -1  -1  -1  -1  -1  -1  -1  -1  -1  -1  -1  -1  -1  -1  -1  -1  -1  -1  -1  -1  -1  -1  -1  -1  -1  -1  -1  -1  -1  -1  -1  -1  -1  -1  -1  31  16  14  31  23  31  31  31   0  15  15  31  19  31  30  24  27  28  30  23  31  29  27  30  21  30  31  21  20  20  31  21  31  11  31  31  12  15  28  14  14  31  29  29   0  15  31  14  31   0
  -1  -1  -1  -1  -1  -1  -1  -1  -1  -1  -1  -1  -1  -1  -1  -1  -1  -1  -1  -1  -1  -1  -1  -1  -1  -1  -1  -1  -1  -1  -1  -1  -1  -1  -1  -1  27  27  27  -1  27  11   0  27  18  27  27  27  27   0  10  27  19  27  27  21  24  25  27  19  27  26  24  27  16  27  27  14  12  12  27  17  27  16  27  27  18  10  25  10  10  27  26  26  14  15  27  12  27   0
  -1  -1  -1  -1  -1  -1  -1  -1  -1  -1  -1  -1  -1  -1  -1  -1  -1  -1  -1  -1  -1  -1  -1  -1  -1  -1  -1  -1  -1  -1  -1  -1  -1  -1   0   0   0   0   0  30   0  26  27   0  23   0   0   0   0  28   0   0  28   0  10  23  14  14  10  24   0  11  14  10  24  10   0  24  25  25   0  24   0  31   0   0  33  27  12  27  27   0  11  18  31  31   0  27   0   0
  -1  -1  -1  -1  -1  -1  -1  -1  -1  -1  -1  -1  -1  -1  -1  -1  -1  -1  -1  -1  -1  -1  -1  -1  -1  -1  -1  -1  -1  -1  -1  -1  -1  -1  -1  -1  -1  -1  -1  -1  -1  10  10  27  16  27  27  27  27  11   6   0  13  27  26  20  24  24  26  15  27  25  24  26  12  26  27  12  12  12  27  12  27  18  27  27  20   6  25  10  10  27  25  25  15  16  27  10  27   0
  -1  -1  -1  -1  -1  -1  -1  -1  -1  -1  -1  -1  -1  -1  -1  -1  -1  -1  -1  -1  -1  -1  -1  -1  -1  -1  -1  -1  -1  -1  -1  -1  -1  -1  -1  -1  -1  -1  -1  -1  -1  -1  -1  -1  -1  27  27  27  27  15  -1  27   0  27  26  20  24  24  26  19  27  25  24  26  16  26  27  12  12  12  27  17  27  18  27  27  20   0  25  10  10  27  25  25  15  16  27  12  27   0
  -1  -1  -1  -1  -1  -1  -1  -1  -1  -1  -1  -1  -1  -1  -1  -1  -1  -1  -1  -1  -1  -1  -1  -1  -1  -1  -1  -1  -1  -1  -1  -1  -1  -1  -1  -1  -1  -1  -1  -1  -1  -1  -1  -1  -1  -1  18  18  18  -1  -1  18  24   0  19  12  19  12  19  16  18  19  11  19  20  15  18  20  21  21  18  20  18  27  18  18  28  23  12  24  24  18  19  14  26  27  18  24  18   0
  -1  -1  -1  -1  -1  -1  -1  -1  -1  -1  -1  -1  -1  -1  -1  -1  -1  -1  -1  -1  -1  -1  -1  -1  -1  -1  -1  -1  -1  -1  -1  -1  -1  -1  -1  -1  -1  -1  -1  -1  -1  -1  -1  -1  -1  -1  -1   0   0  -1  -1   0  28   0   0  23  14  14  10  24   0  11  14  10  24  10   0  24  25  25   0  24   0  31   0   0  33  27  12  27  27   0  11  18  31  31   0  27   0   0
  -1  -1  -1  -1  -1  -1  -1  -1  -1  -1  -1  -1  -1  -1  -1  -1  -1  -1  -1  -1  -1  -1  -1  -1  -1  -1  -1  -1  -1  -1  -1  -1  -1  -1  -1  -1  -1  -1  -1  -1  -1  -1  -1  -1  -1  -1  -1  -1  10  -1  -1  10  27  10   0   0  12  15   0  23  10  10  15   0  24   6  10  24  24  24  10  24  10  31  10  10  31  26  11  27  27  10  10  19  30  31  10  27  10   0
  -1  -1  -1  -1  -1  -1  -1  -1  -1  -1  -1  -1  -1  -1  -1  -1  -1  -1  -1  -1  -1  -1  -1  -1  -1  -1  -1  -1  -1  -1  -1  -1  -1  -1  -1  -1  -1  -1  -1  -1  -1  -1  -1  -1  -1  -1  -1  -1  -1  -1  -1  -1  28   0  10  23   0  14  10  24   0  11  14  10  24  10   0  24  25  25   0  24   0  31   0   0  33  27  12  27  27   0  11  18  31  31   0  27   0   0
  -1  -1  -1  -1  -1  -1  -1  -1  -1  -1  -1  -1  -1  -1  -1  -1  -1  -1  -1  -1  -1  -1  -1  -1  -1  -1  -1  -1  -1  -1  -1  -1  -1  -1  -1  -1  -1  -1  -1  -1  -1  -1  -1  -1  -1  -1  -1  -1  -1  -1  -1  -1  25  14  12  15   0   0  12  20  14  12  15  12  23  12  14  23  23  23  14  23  14  28  14  14  29  24  11  24  24  14  12  19  27  28  14  24  14   0
  -1  -1  -1  -1  -1  -1  -1  -1  -1  -1  -1  -1  -1  -1  -1  -1  -1  -1  -1  -1  -1  -1  -1  -1  -1  -1  -1  -1  -1  -1  -1  -1  -1  -1  -1  -1  -1  -1  -1  -1  -1  -1  -1  -1  -1  -1  -1  -1  -1  -1  -1  -1  28   0  10  23  14  14   0  24   0  11  14  10  24  10   0  24  25  25   0  24   0  31   0   0  33  27  12  27  27   0  11  18  31  31   0  27   0   0
  -1  -1  -1  -1  -1  -1  -1  -1  -1  -1  -1  -1  -1  -1  -1  -1  -1  -1  -1  -1  -1  -1  -1  -1  -1  -1  -1  -1  -1  -1  -1  -1  -1  -1  -1  -1  -1  -1  -1  -1  -1  -1  -1  -1  -1  -1  -1  -1  -1  -1  -1  -1  -1  10   0  21  12  15   0   0  10  10  15   0  24   6  10  24  24  24  10  24  10  31  10  10  31  26  11  27  27  10  10  19  30  31  10  27  10   0
  -1  -1  -1  -1  -1  -1  -1  -1  -1  -1  -1  -1  -1  -1  -1  -1  -1  -1  -1  -1  -1  -1  -1  -1  -1  -1  -1  -1  -1  -1  -1  -1  -1  -1  -1  -1  -1  -1  -1  -1  -1  -1  -1  -1  -1  -1  -1  -1  -1  -1  -1  -1  -1  24  24  14  23  23  24  11   0  24  23  24   4  24  24  15  15  11  24   3  24  23  24  24  23  21  23  14  14  24  24  24  21  23  24  14  24   0
  -1  -1  -1  -1  -1  -1  -1  -1  -1  -1  -1  -1  -1  -1  -1  -1  -1  -1  -1  -1  -1  -1  -1  -1  -1  -1  -1  -1  -1  -1  -1  -1  -1  -1  -1  -1  -1  -1  -1  -1  -1  -1  -1  -1  -1  -1  -1  -1  -1  -1  -1  -1  -1  -1  27  23  25  25  27  18  28   0  25  27  15  27  28  15  14  14  28  15  28  15  28  28  16  15  26  10  10  28  27  27  15  14  28  10  28   0
  -1  -1  -1  -1  -1  -1  -1  -1  -1  -1  -1  -1  -1  -1  -1  -1  -1  -1  -1  -1  -1  -1  -1  -1  -1  -1  -1  -1  -1  -1  -1  -1  -1  -1  -1  -1  -1  -1  -1  -1  -1  -1  -1  -1  -1  -1  -1  -1  -1  -1  -1  -1  -1  -1  -1  -1  12  15  10  23  11   0   0  10  24  10  11  24  24  24  11  24  11  31  11  11  31  25  10  26  26  11   0  19  29  30  11  26  11   0
  -1  -1  -1  -1  -1  -1  -1  -1  -1  -1  -1  -1  -1  -1  -1  -1  -1  -1  -1  -1  -1  -1  -1  -1  -1  -1  -1  -1  -1  -1  -1  -1  -1  -1  -1  -1  -1  -1  -1  -1  -1  -1  -1  -1  -1  -1  -1  -1  -1  -1  -1  -1  -1  -1  -1  -1  14  15  20  12  21  18  14   0  15  20  21  15  16  16  21  15  21  25  21  21  26  21  16  23  23  21  18  18  24  25  21  23  21   0
  -1  -1  -1  -1  -1  -1  -1  -1  -1  -1  -1  -1  -1  -1  -1  -1  -1  -1  -1  -1  -1  -1  -1  -1  -1  -1  -1  -1  -1  -1  -1  -1  -1  -1  -1  -1  -1  -1  -1  -1  -1  -1  -1  -1  -1  -1  -1  -1  -1  -1  -1  -1  -1  -1  -1  -1  23  23  24  19  24  24  23  24   0  24  24   5  10  10  24  17  24  23  24  24  23  12  23  14  14  24  24  24  21  23  24  14  24   0
  -1  -1  -1  -1  -1  -1  -1  -1  -1  -1  -1  -1  -1  -1  -1  -1  -1  -1  -1  -1  -1  -1  -1  -1  -1  -1  -1  -1  -1  -1  -1  -1  -1  -1  -1  -1  -1  -1  -1  -1  -1  -1  -1  -1  -1  -1  -1  -1  -1  -1  -1  -1  -1  -1  -1  -1  12  15   0  23  10  10  15   0  24   0  10  24  24  24  10  24  10  31  10  10  31  26  11  27  27  10  10  19  30  31  10  27  10   0
  -1  -1  -1  -1  -1  -1  -1  -1  -1  -1  -1  -1  -1  -1  -1  -1  -1  -1  -1  -1  -1  -1  -1  -1  -1  -1  -1  -1  -1  -1  -1  -1  -1  -1  -1  -1  -1  -1  -1  -1  -1  -1  -1  -1  -1  -1  -1  -1  -1  -1  -1  -1  -1  -1  -1  -1  -1  14  18  14  20  16  12  18  16  18   0  16  18  18  20  16  20  26  20  20  27  23  15  23  23  20  16  16  25  25  20  23  20   0
  -1  -1  -1  -1  -1  -1  -1  -1  -1  -1  -1  -1  -1  -1  -1  -1  -1  -1  -1  -1  -1  -1  -1  -1  -1  -1  -1  -1  -1  -1  -1  -1  -1  -1  -1  -1  -1  -1  -1  -1  -1  -1  -1  -1  -1  -1  -1  -1  -1  -1  -1  -1  -1  -1  -1  -1  -1  -1  -1  16  -1  24  23  24  13  24  24   0  10  10  24  14  24  23  24  24  23  12  23  14  14  24  24  24  21  23  24  14  24   0
  -1  -1  -1  -1  -1  -1  -1  -1  -1  -1  -1  -1  -1  -1  -1  -1  -1  -1  -1  -1  -1  -1  -1  -1  -1  -1  -1  -1  -1  -1  -1  -1  -1  -1  -1  -1  -1  -1  -1  -1  -1  -1  -1  -1  -1  -1  -1  -1  -1  -1  -1  -1  -1  -1  -1  -1  -1  -1  -1  16  -1  24  23  24  13  24  25  10   0   6  25  14  25  23  25  25  23  12  24  12  12  25  24  24  20  21  25  12  25   0
  -1  -1  -1  -1  -1  -1  -1  -1  -1  -1  -1  -1  -1  -1  -1  -1  -1  -1  -1  -1  -1  -1  -1  -1  -1  -1  -1  -1  -1  -1  -1  -1  -1  -1  -1  -1  -1  -1  -1  -1  -1  -1  -1  -1  -1  -1  -1  -1  -1  -1  -1  -1  -1  -1  -1  -1  -1  -1  -1  -1  -1  -1  23  24  13  24  25  10   2   0  25  14  25  23  25  25  23  12  24  12  12  25  24  24  20  21  25  12  25   0
  -1  -1  -1  -1  -1  -1  -1  -1  -1  -1  -1  -1  -1  -1  -1  -1  -1  -1  -1  -1  -1  -1  -1  -1  -1  -1  -1  -1  -1  -1  -1  -1  -1  -1  -1  -1  -1  -1  -1  -1  -1  -1  -1  -1  -1  -1  -1  -1  -1  -1  -1  -1  -1  -1  -1  -1  -1  -1  -1  -1  -1  -1  -1  24  -1  24  24  15  15  11   0   3  24  23  24  24  23  21  23  14  14  24  24  24  21  23  24  14  24   0
  -1  -1  -1  -1  -1  -1  -1  -1  -1  -1  -1  -1  -1  -1  -1  -1  -1  -1  -1  -1  -1  -1  -1  -1  -1  -1  -1  -1  -1  -1  -1  -1  -1  -1  -1  -1  -1  -1  -1  -1  -1  -1  -1  -1  -1  -1  -1  -1  -1  -1  -1  -1  -1  -1  -1  -1  -1  -1  -1  -1  -1  -1  -1  -1  -1  24  24   5  10  10  24   0  24  23  24  24  23  12  23  14  14  24  24  24  21  23  24  14  24   0
  -1  -1  -1  -1  -1  -1  -1  -1  -1  -1  -1  -1  -1  -1  -1  -1  -1  -1  -1  -1  -1  -1  -1  -1  -1  -1  -1  -1  -1  -1  -1  -1  -1  -1  -1  -1  -1  -1  -1  -1  -1  -1  -1  -1  -1  -1  -1  -1  -1  -1  -1  -1  -1  -1  -1  -1  -1  -1  -1  -1  -1  -1  -1  -1  -1  -1  24  17  17  14  24   6   0  23  24  24  23  23  23  14  14  24  24  24  23  23  24  14  24   0
  -1  -1  -1  -1  -1  -1  -1  -1  -1  -1  -1  -1  -1  -1  -1  -1  -1  -1  -1  -1  -1  -1  -1  -1  -1  -1  -1  -1  -1  -1  -1  -1  -1  -1  -1  -1  -1  -1  -1  -1  -1  -1  -1  -1  -1  -1  -1  -1  -1  -1  -1  -1  -1  -1  -1  -1  -1  -1  -1  -1  -1  -1  -1  -1  -1  -1  -1  -1  -1  23  31  23  31   0  31  31  10  18  30  16  16  31  31  31  15  10  31  16  31   0
  -1  -1  -1  -1  -1  -1  -1  -1  -1  -1  -1  -1  -1  -1  -1  -1  -1  -1  -1  -1  -1  -1  -1  -1  -1  -1  -1  -1  -1  -1  -1  -1  -1  -1  -1  -1  -1  -1  -1  -1  -1  -1  -1  -1  -1  -1  -1  -1  -1  -1  -1  -1  -1  -1  -1  -1  -1  -1  -1  -1  -1  -1  -1  -1  -1  -1  -1  -1  -1  14  24   6  24  23   0  24  23  23  23  14  14  24  24  24  23  23  24  14  24   0
  -1  -1  -1  -1  -1  -1  -1  -1  -1  -1  -1  -1  -1  -1  -1  -1  -1  -1  -1  -1  -1  -1  -1  -1  -1  -1  -1  -1  -1  -1  -1  -1  -1  -1  -1  -1  -1  -1  -1  -1  -1  -1  -1  -1  -1  -1  -1  -1  -1  -1  -1  -1  -1  -1  -1  -1  -1  -1  -1  -1  -1  -1  -1  -1  -1  -1  -1  -1  -1  -1  24   6  24  23  24   0  23  23  23  14  14  24  24  24  23  23  24  14  24   0
  -1  -1  -1  -1  -1  -1  -1  -1  -1  -1  -1  -1  -1  -1  -1  -1  -1  -1  -1  -1  -1  -1  -1  -1  -1  -1  -1  -1  -1  -1  -1  -1  -1  -1  -1  -1  -1  -1  -1  -1  -1  -1  -1  -1  -1  -1  -1  -1  -1  -1  -1  -1  -1  -1  -1  -1  -1  -1  -1  -1  -1  -1  -1  -1  -1  -1  -1  -1  -1  23  31  23  31   0  31  31   0  18  30  16  16  31  31  31  11  15  31  16  31   0
  -1  -1  -1  -1  -1  -1  -1  -1  -1  -1  -1  -1  -1  -1  -1  -1  -1  -1  -1  -1  -1  -1  -1  -1  -1  -1  -1  -1  -1  -1  -1  -1  -1  -1  -1  -1  -1  -1  -1  -1  -1  -1  -1  -1  -1  -1  -1  -1  -1  -1  -1  -1  -1  -1  -1  -1  -1  -1  -1  -1  -1  -1  -1  -1  -1  -1  -1  -1  -1  -1  -1  -1  -1  31   0   0  33   0  12  27  27   0  11  18  31  31   0  27   0   0
  -1  -1  -1  -1  -1  -1  -1  -1  -1  -1  -1  -1  -1  -1  -1  -1  -1  -1  -1  -1  -1  -1  -1  -1  -1  -1  -1  -1  -1  -1  -1  -1  -1  -1  -1  -1  -1  -1  -1  -1  -1  -1  -1  -1  -1  -1  -1  -1  -1  -1  -1  -1  -1  -1  -1  -1  -1  -1  -1  -1  -1  -1  -1  -1  -1  -1  -1  -1  -1  -1  -1  -1  -1  18  27  27  20   0   0  10  10  27  25  25  15  16  27  12  27   0
  -1  -1  -1  -1  -1  -1  -1  -1  -1  -1  -1  -1  -1  -1  -1  -1  -1  -1  -1  -1  -1  -1  -1  -1  -1  -1  -1  -1  -1  -1  -1  -1  -1  -1  -1  -1  -1  -1  -1  -1  -1  -1  -1  -1  -1  -1  -1  -1  -1  -1  -1  -1  -1  -1  -1  -1  -1  -1  -1  -1  -1  -1  -1  -1  -1  -1  -1  -1  -1  -1  -1  -1  -1  16  27  27  18  10  25   0   7  27  26  26  14  15  27   9  27   0
  -1  -1  -1  -1  -1  -1  -1  -1  -1  -1  -1  -1  -1  -1  -1  -1  -1  -1  -1  -1  -1  -1  -1  -1  -1  -1  -1  -1  -1  -1  -1  -1  -1  -1  -1  -1  -1  -1  -1  -1  -1  -1  -1  -1  -1  -1  -1  -1  -1  -1  -1  -1  -1  -1  -1  -1  -1  -1  -1  -1  -1  -1  -1  -1  -1  -1  -1  -1  -1  -1  -1  -1  -1  16  27  27  18  10  25   9   0  27  26  26  14  15  27  11  27   0
  -1  -1  -1  -1  -1  -1  -1  -1  -1  -1  -1  -1  -1  -1  -1  -1  -1  -1  -1  -1  -1  -1  -1  -1  -1  -1  -1  -1  -1  -1  -1  -1  -1  -1  -1  -1  -1  -1  -1  -1  -1  -1  -1  -1  -1  -1  -1  -1  -1  -1  -1  -1  -1  -1  -1  -1  -1  -1  -1  -1  -1  -1  -1  -1  -1  -1  -1  -1  -1  -1  -1  -1  -1  -1  -1  -1  -1  12  23  14  14   0  24  24  21  23  24  14  24   0
  -1  -1  -1  -1  -1  -1  -1  -1  -1  -1  -1  -1  -1  -1  -1  -1  -1  -1  -1  -1  -1  -1  -1  -1  -1  -1  -1  -1  -1  -1  -1  -1  -1  -1  -1  -1  -1  -1  -1  -1  -1  -1  -1  -1  -1  -1  -1  -1  -1  -1  -1  -1  -1  -1  -1  -1  -1  -1  -1  -1  -1  -1  -1  -1  -1  -1  -1  -1  -1  -1  -1  -1  -1  -1  -1  -1  -1  27  12  27  27   0   0  18  31  31   0  27   0   0
  -1  -1  -1  -1  -1  -1  -1  -1  -1  -1  -1  -1  -1  -1  -1  -1  -1  -1  -1  -1  -1  -1  -1  -1  -1  -1  -1  -1  -1  -1  -1  -1  -1  -1  -1  -1  -1  -1  -1  -1  -1  -1  -1  -1  -1  -1  -1  -1  -1  -1  -1  -1  -1  -1  -1  -1  -1  -1  -1  -1  -1  -1  -1  -1  -1  -1  -1  -1  -1  -1  -1  -1  -1  -1  -1  -1  -1  25  10  26  26  11   0   0  29  30  11  26  11   0
  -1  -1  -1  -1  -1  -1  -1  -1  -1  -1  -1  -1  -1  -1  -1  -1  -1  -1  -1  -1  -1  -1  -1  -1  -1  -1  -1  -1  -1  -1  -1  -1  -1  -1  -1  -1  -1  -1  -1  -1  -1  -1  -1  -1  -1  -1  -1  -1  -1  -1  -1  -1  -1  -1  -1  -1  -1  -1  -1  -1  -1  -1  -1  -1  -1  -1  -1  -1  -1  -1  -1  -1  -1  -1  -1  -1  -1  -1  29  15  15  31  30  30   0   0  31  15  31   0
  -1  -1  -1  -1  -1  -1  -1  -1  -1  -1  -1  -1  -1  -1  -1  -1  -1  -1  -1  -1  -1  -1  -1  -1  -1  -1  -1  -1  -1  -1  -1  -1  -1  -1  -1  -1  -1  -1  -1  -1  -1  -1  -1  -1  -1  -1  -1  -1  -1  -1  -1  -1  -1  -1  -1  -1  -1  -1  -1  -1  -1  -1  -1  -1  -1  -1  -1  -1  -1  -1  -1  -1  -1  -1  -1  -1  -1  -1  -1  14  14  31  29  29   0   0  31  14  31   0
  -1  -1  -1  -1  -1  -1  -1  -1  -1  -1  -1  -1  -1  -1  -1  -1  -1  -1  -1  -1  -1  -1  -1  -1  -1  -1  -1  -1  -1  -1  -1  -1  -1  -1  -1  -1  -1  -1  -1  -1  -1  -1  -1  -1  -1  -1  -1  -1  -1  -1  -1  -1  -1  -1  -1  -1  -1  -1  -1  -1  -1  -1  -1  -1  -1  -1  -1  -1  -1  -1  -1  -1  -1  -1  -1  -1  -1  -1  -1  -1  -1  24  24  24  21  23   0  14  24   0
  -1  -1  -1  -1  -1  -1  -1  -1  -1  -1  -1  -1  -1  -1  -1  -1  -1  -1  -1  -1  -1  -1  -1  -1  -1  -1  -1  -1  -1  -1  -1  -1  -1  -1  -1  -1  -1  -1  -1  -1  -1  -1  -1  -1  -1  -1  -1  -1  -1  -1  -1  -1  -1  -1  -1  -1  -1  -1  -1  -1  -1  -1  -1  -1  -1  -1  -1  -1  -1  -1  -1  -1  -1  -1  -1  -1  -1  -1  -1  -1  -1  -1  -1  -1  -1  -1  27   0  27   0
  -1  -1  -1  -1  -1  -1  -1  -1  -1  -1  -1  -1  -1  -1  -1  -1  -1  -1  -1  -1  -1  -1  -1  -1  -1  -1  -1  -1  -1  -1  -1  -1  -1  -1  -1  -1  -1  -1  -1  -1  -1  -1  -1  -1  -1  -1  -1  -1  -1  -1  -1  -1  -1  -1  -1  -1  -1  -1  -1  -1  -1  -1  -1  -1  -1  -1  -1  -1  -1  -1  -1  -1  -1  -1  -1  -1  -1  -1  -1  -1  -1  -1  -1  -1  -1  -1  25  12   0   0
  -1  -1  -1  -1  -1  -1  -1  -1  -1  -1  -1  -1  -1  -1  -1  -1  -1  -1  -1  -1  -1  -1  -1  -1  -1  -1  -1  -1  -1  -1  -1  -1  -1  -1  -1  -1  -1  -1  -1  -1  -1  -1  -1  -1  -1  -1  -1  -1  -1  -1  -1  -1  -1  -1  -1  -1  -1  -1  -1  -1  -1  -1  -1  -1  -1  -1  -1  -1  -1  -1  -1  -1  -1  -1  -1  -1  -1  -1  -1  -1  -1  -1  -1  -1  -1  -1  -1  -1  -1   0
